NAME : 15ftv70.594.tour
COMMENT : Length = 594
COMMENT : Found by GLKH [Keld Helsgaun] Tue Nov  5 16:51:45 2013
TYPE : TOUR
DIMENSION : 15
TOUR_SECTION
8
10
14
18
19
23
35
37
64
47
52
55
71
58
60
-1
EOF
